benchmarks/bfuzz0/9604149821774611044270082637722028709.smt2
(set-logic QF_FP)
(declare-const x0 (_ FloatingPoint 11 53))
(declare-const x1 (_ FloatingPoint 11 53))
(declare-const x2 (_ FloatingPoint 11 53))
(declare-const x3 (_ FloatingPoint 11 53))
(declare-const x4 (_ FloatingPoint 11 53))
(declare-const x5 (_ FloatingPoint 11 53))
(declare-const x6 (_ FloatingPoint 11 53))
(declare-const x7 (_ FloatingPoint 11 53))
(declare-const x8 (_ FloatingPoint 11 53))
(declare-const x9 (_ FloatingPoint 11 53))
(declare-const x10 (_ FloatingPoint 11 53))
(declare-const x11 (_ FloatingPoint 11 53))
(assert (fp.leq (fp.mul RNE x7 x10) (fp.mul RNE x0 x1)))
(assert (fp.geq (fp.neg x2) (fp.add RNE x10 x9)))
(assert (fp.leq (fp.neg x7) (fp.neg x1)))
(check-sat)
