db/data/9604149821774611044270082637722028709.z3.out
sat
-------------------
4.598666711
